50
100
99
94
94
89
88
86
86
85
84
84
83
79
77
76
74
73
71
71
66
65
63
62
60
54
53
50
49
48
48
48
48
43
41
40
40
39
38
35
34
32
31
29
28
25
23
23
22
21
20
20
